Traveling Salesman Problem/TSP_generados/Aleatorio1621103272_7.tsp
NAME: Aleatorio1621103272_7.tsp
COMMENT: Randomly generated scenario
TYPE: TSP
DIMENSION: 7
EDGE_WEIGHT_TYPE: ATT
NODE_COORD_SECTION
1 12.52 33.48
2 6.31 10.65
3 6.76 14.78
4 9.44 34.89
5 15.76 39.69
6 41.06 43.2
7 30.73 7.53
