Traveling Salesman Problem/TSP_generados/Aleatorio1621103272_7.opt.tour
NAME: Aleatorio1621103272_7.opt.tour
COMMENT: Optimal solution for Aleatorio1621103272_7 (122.13053670237346)
TYPE: TOUR
DIMENSION: 7
TOUR_SECTION
1 5 6 7 2 3 4
-1
EOF
